(declare-fun var0 () String)
(assert (str.in.re var0 (re.++ (re.union (re.union (str.to.re "pp") (str.to.re "q")) (re.+ (str.to.re "rrr"))) (re.++ (re.* (re.* (str.to.re "oo"))) (re.++ (re.union (re.+ (str.to.re "lll")) (re.union (str.to.re "mm") (str.to.re "nnn"))) (re.++ (re.+ (re.union (str.to.re "j") (str.to.re "kk"))) (re.++ (re.* (re.* (str.to.re "i"))) (re.++ (re.+ (re.union (str.to.re "g") (str.to.re "hh"))) (re.++ (re.union (re.* (str.to.re "ddd")) (re.union (str.to.re "eee") (str.to.re "ff"))) (re.++ (re.* (re.* (str.to.re "c"))) (re.++ (re.+ (re.* (str.to.re "bbb"))) (re.++ (re.+ (re.+ (str.to.re "aa"))) (re.++ (re.union (re.union (str.to.re "77") (str.to.re "888")) (re.* (str.to.re "999"))) (re.++ (re.+ (re.* (str.to.re "6"))) (re.++ (re.* (re.+ (str.to.re "5"))) (re.++ (re.* (re.* (str.to.re "444"))) (re.++ (re.union (re.union (str.to.re "00") (str.to.re "11")) (re.union (str.to.re "22") (str.to.re "333"))) (re.++ (re.* (re.union (str.to.re "}") (str.to.re "~~~"))) (re.++ (re.+ (re.* (str.to.re "||"))) (re.++ (re.+ (re.* (str.to.re "{"))) (re.++ (re.union (re.union (str.to.re "^^") (str.to.re "_")) (re.+ (str.to.re "``"))) (re.++ (re.+ (re.+ (str.to.re "]]]"))) (re.++ (re.* (re.+ (str.to.re "\\"))) (re.++ (re.* (re.+ (str.to.re "[["))) (re.++ (re.* (re.* (str.to.re "@"))) (re.++ (re.* (re.union (str.to.re ">") (str.to.re "???"))) (re.++ (re.+ (re.* (str.to.re "=="))) (re.++ (re.* (re.+ (str.to.re "<<<"))) (re.++ (re.* (re.+ (str.to.re ";;"))) (re.++ (re.* (re.* (str.to.re ":::"))) (re.++ (re.+ (re.* (str.to.re "/"))) (re.++ (re.union (re.+ (str.to.re ",,")) (re.union (str.to.re "-") (str.to.re "."))) (re.++ (re.+ (re.* (str.to.re "+"))) (re.++ (re.+ (re.* (str.to.re "**"))) (re.++ (re.+ (re.+ (str.to.re "))"))) (re.++ (re.union (re.+ (str.to.re "&&")) (re.union (str.to.re "'''") (str.to.re "(("))) (re.++ (re.+ (re.+ (str.to.re "%%%"))) (re.++ (re.union (re.+ (str.to.re "###")) (re.+ (str.to.re "$$"))) (re.++ (re.+ (re.* (str.to.re """"""""))) (re.++ (re.union (re.* (str.to.re "ZZ")) (re.* (str.to.re "!"))) (re.++ (re.union (re.* (str.to.re "XXX")) (re.+ (str.to.re "YYY"))) (re.++ (re.+ (re.* (str.to.re "W"))) (re.++ (re.* (re.* (str.to.re "VVV"))) (re.++ (re.+ (re.+ (str.to.re "UU"))) (re.++ (re.+ (re.union (str.to.re "S") (str.to.re "TT"))) (re.++ (re.* (re.union (str.to.re "QQQ") (str.to.re "RRR"))) (re.++ (re.union (re.union (str.to.re "N") (str.to.re "O")) (re.* (str.to.re "PPP"))) (re.++ (re.union (re.union (str.to.re "J") (str.to.re "KK")) (re.union (str.to.re "LLL") (str.to.re "MMM"))) (re.++ (re.+ (re.* (str.to.re "III"))) (re.++ (re.+ (re.* (str.to.re "H"))) (re.++ (re.+ (re.+ (str.to.re "GG"))) (re.++ (re.* (re.* (str.to.re "FF"))) (re.++ (re.+ (re.+ (str.to.re "EE"))) (re.++ (re.union (re.+ (str.to.re "BBB")) (re.union (str.to.re "C") (str.to.re "D"))) (re.++ (re.union (re.* (str.to.re "zz")) (re.+ (str.to.re "AAA"))) (re.++ (re.union (re.* (str.to.re "xx")) (re.* (str.to.re "yy"))) (re.++ (re.* (re.+ (str.to.re "w"))) (re.++ (re.union (re.* (str.to.re "uu")) (re.* (str.to.re "vv"))) (re.++ (re.+ (re.+ (str.to.re "t"))) (re.++ (re.union (re.union (str.to.re "p") (str.to.re "qqq")) (re.union (str.to.re "rr") (str.to.re "sss"))) (re.++ (re.* (re.+ (str.to.re "ooo"))) (re.++ (re.union (re.union (str.to.re "kkk") (str.to.re "ll")) (re.union (str.to.re "m") (str.to.re "nnn"))) (re.++ (re.* (re.+ (str.to.re "jjj"))) (re.++ (re.+ (re.union (str.to.re "h") (str.to.re "ii"))) (re.++ (re.* (re.union (str.to.re "fff") (str.to.re "ggg"))) (re.++ (re.+ (re.+ (str.to.re "ee"))) (re.++ (re.union (re.union (str.to.re "b") (str.to.re "cc")) (re.* (str.to.re "dd"))) (re.++ (re.* (re.+ (str.to.re "aa"))) (re.++ (re.+ (re.union (str.to.re "8") (str.to.re "9"))) (re.++ (re.union (re.union (str.to.re "5") (str.to.re "66")) (re.+ (str.to.re "7"))) (re.++ (re.* (re.union (str.to.re "333") (str.to.re "4"))) (re.++ (re.* (re.+ (str.to.re "22"))) (re.+ (re.union (str.to.re "00") (str.to.re "11")))))))))))))))))))))))))))))))))))))))))))))))))))))))))))))))))))))))))))
(check-sat)